(set-logic QF_LRA)
(declare-fun T1 () Real )
(declare-fun T2 () Real )
(declare-fun T3 () Real )
(declare-fun T4 () Real )
(declare-fun T5 () Real )
(declare-fun T6 () Real )
(declare-fun Z () Real )
(declare-fun k () Real )
(assert (let
(( $goal (>= Z k) ))
(let
((
$phi ( and 
(or ( <= ( + T1 43 ) T2 ) ( <= ( + T2 35 ) T1 ) )
(or ( <= ( + T1 111 )  ( + T2 35 ) ) ( <= ( + T2 86 )( + T1 43 ) ) )
(or ( <= ( + T1 168 )  ( + T2 86 ) ) ( <= ( + T2 124 )( + T1 111 ) ) )
(or ( <= ( + T1 169 )  ( + T2 124 ) ) ( <= ( + T2 192 )( + T1 168 ) ) )
(or ( <= ( + T1 173 )  ( + T2 192 ) ) ( <= ( + T2 230 )( + T1 169 ) ) )
(or ( <= ( + T1 256 )  ( + T2 230 ) ) ( <= ( + T2 313 )( + T1 173 ) ) )
(or ( <= ( + T1 268 )  ( + T2 313 ) ) ( <= ( + T2 376 )( + T1 256 ) ) )
(or ( <= ( + T1 306 )  ( + T2 376 ) ) ( <= ( + T2 389 )( + T1 268 ) ) )
(or ( <= ( + T1 43 ) T3 ) ( <= ( + T3 92 ) T1 ) )
(or ( <= ( + T1 111 )  ( + T3 92 ) ) ( <= ( + T3 134 )( + T1 43 ) ) )
(or ( <= ( + T1 168 )  ( + T3 134 ) ) ( <= ( + T3 227 )( + T1 111 ) ) )
(or ( <= ( + T1 169 )  ( + T3 227 ) ) ( <= ( + T3 282 )( + T1 168 ) ) )
(or ( <= ( + T1 173 )  ( + T3 282 ) ) ( <= ( + T3 318 )( + T1 169 ) ) )
(or ( <= ( + T1 256 )  ( + T3 318 ) ) ( <= ( + T3 337 )( + T1 173 ) ) )
(or ( <= ( + T1 268 )  ( + T3 337 ) ) ( <= ( + T3 377 )( + T1 256 ) ) )
(or ( <= ( + T1 306 )  ( + T3 377 ) ) ( <= ( + T3 405 )( + T1 268 ) ) )
(or ( <= ( + T1 43 ) T4 ) ( <= ( + T4 31 ) T1 ) )
(or ( <= ( + T1 111 )  ( + T4 31 ) ) ( <= ( + T4 50 )( + T1 43 ) ) )
(or ( <= ( + T1 168 )  ( + T4 50 ) ) ( <= ( + T4 102 )( + T1 111 ) ) )
(or ( <= ( + T1 169 )  ( + T4 102 ) ) ( <= ( + T4 187 )( + T1 168 ) ) )
(or ( <= ( + T1 173 )  ( + T4 187 ) ) ( <= ( + T4 260 )( + T1 169 ) ) )
(or ( <= ( + T1 256 )  ( + T4 260 ) ) ( <= ( + T4 358 )( + T1 173 ) ) )
(or ( <= ( + T1 268 )  ( + T4 358 ) ) ( <= ( + T4 408 )( + T1 256 ) ) )
(or ( <= ( + T1 306 )  ( + T4 408 ) ) ( <= ( + T4 423 )( + T1 268 ) ) )
(or ( <= ( + T1 43 ) T5 ) ( <= ( + T5 66 ) T1 ) )
(or ( <= ( + T1 111 )  ( + T5 66 ) ) ( <= ( + T5 72 )( + T1 43 ) ) )
(or ( <= ( + T1 168 )  ( + T5 72 ) ) ( <= ( + T5 140 )( + T1 111 ) ) )
(or ( <= ( + T1 169 )  ( + T5 140 ) ) ( <= ( + T5 161 )( + T1 168 ) ) )
(or ( <= ( + T1 173 )  ( + T5 161 ) ) ( <= ( + T5 250 )( + T1 169 ) ) )
(or ( <= ( + T1 256 )  ( + T5 250 ) ) ( <= ( + T5 329 )( + T1 173 ) ) )
(or ( <= ( + T1 268 )  ( + T5 329 ) ) ( <= ( + T5 388 )( + T1 256 ) ) )
(or ( <= ( + T1 306 )  ( + T5 388 ) ) ( <= ( + T5 463 )( + T1 268 ) ) )
(or ( <= ( + T1 43 ) T6 ) ( <= ( + T6 82 ) T1 ) )
(or ( <= ( + T1 111 )  ( + T6 82 ) ) ( <= ( + T6 178 )( + T1 43 ) ) )
(or ( <= ( + T1 168 )  ( + T6 178 ) ) ( <= ( + T6 220 )( + T1 111 ) ) )
(or ( <= ( + T1 169 )  ( + T6 220 ) ) ( <= ( + T6 291 )( + T1 168 ) ) )
(or ( <= ( + T1 173 )  ( + T6 291 ) ) ( <= ( + T6 321 )( + T1 169 ) ) )
(or ( <= ( + T1 256 )  ( + T6 321 ) ) ( <= ( + T6 377 )( + T1 173 ) ) )
(or ( <= ( + T1 268 )  ( + T6 377 ) ) ( <= ( + T6 460 )( + T1 256 ) ) )
(or ( <= ( + T1 306 )  ( + T6 460 ) ) ( <= ( + T6 533 )( + T1 268 ) ) )
(or ( <= ( + T2 35 ) T3 ) ( <= ( + T3 92 ) T2 ) )
(or ( <= ( + T2 86 )  ( + T3 92 ) ) ( <= ( + T3 134 )( + T2 35 ) ) )
(or ( <= ( + T2 124 )  ( + T3 134 ) ) ( <= ( + T3 227 )( + T2 86 ) ) )
(or ( <= ( + T2 192 )  ( + T3 227 ) ) ( <= ( + T3 282 )( + T2 124 ) ) )
(or ( <= ( + T2 230 )  ( + T3 282 ) ) ( <= ( + T3 318 )( + T2 192 ) ) )
(or ( <= ( + T2 313 )  ( + T3 318 ) ) ( <= ( + T3 337 )( + T2 230 ) ) )
(or ( <= ( + T2 376 )  ( + T3 337 ) ) ( <= ( + T3 377 )( + T2 313 ) ) )
(or ( <= ( + T2 389 )  ( + T3 377 ) ) ( <= ( + T3 405 )( + T2 376 ) ) )
(or ( <= ( + T2 35 ) T4 ) ( <= ( + T4 31 ) T2 ) )
(or ( <= ( + T2 86 )  ( + T4 31 ) ) ( <= ( + T4 50 )( + T2 35 ) ) )
(or ( <= ( + T2 124 )  ( + T4 50 ) ) ( <= ( + T4 102 )( + T2 86 ) ) )
(or ( <= ( + T2 192 )  ( + T4 102 ) ) ( <= ( + T4 187 )( + T2 124 ) ) )
(or ( <= ( + T2 230 )  ( + T4 187 ) ) ( <= ( + T4 260 )( + T2 192 ) ) )
(or ( <= ( + T2 313 )  ( + T4 260 ) ) ( <= ( + T4 358 )( + T2 230 ) ) )
(or ( <= ( + T2 376 )  ( + T4 358 ) ) ( <= ( + T4 408 )( + T2 313 ) ) )
(or ( <= ( + T2 389 )  ( + T4 408 ) ) ( <= ( + T4 423 )( + T2 376 ) ) )
(or ( <= ( + T2 35 ) T5 ) ( <= ( + T5 66 ) T2 ) )
(or ( <= ( + T2 86 )  ( + T5 66 ) ) ( <= ( + T5 72 )( + T2 35 ) ) )
(or ( <= ( + T2 124 )  ( + T5 72 ) ) ( <= ( + T5 140 )( + T2 86 ) ) )
(or ( <= ( + T2 192 )  ( + T5 140 ) ) ( <= ( + T5 161 )( + T2 124 ) ) )
(or ( <= ( + T2 230 )  ( + T5 161 ) ) ( <= ( + T5 250 )( + T2 192 ) ) )
(or ( <= ( + T2 313 )  ( + T5 250 ) ) ( <= ( + T5 329 )( + T2 230 ) ) )
(or ( <= ( + T2 376 )  ( + T5 329 ) ) ( <= ( + T5 388 )( + T2 313 ) ) )
(or ( <= ( + T2 389 )  ( + T5 388 ) ) ( <= ( + T5 463 )( + T2 376 ) ) )
(or ( <= ( + T2 35 ) T6 ) ( <= ( + T6 82 ) T2 ) )
(or ( <= ( + T2 86 )  ( + T6 82 ) ) ( <= ( + T6 178 )( + T2 35 ) ) )
(or ( <= ( + T2 124 )  ( + T6 178 ) ) ( <= ( + T6 220 )( + T2 86 ) ) )
(or ( <= ( + T2 192 )  ( + T6 220 ) ) ( <= ( + T6 291 )( + T2 124 ) ) )
(or ( <= ( + T2 230 )  ( + T6 291 ) ) ( <= ( + T6 321 )( + T2 192 ) ) )
(or ( <= ( + T2 313 )  ( + T6 321 ) ) ( <= ( + T6 377 )( + T2 230 ) ) )
(or ( <= ( + T2 376 )  ( + T6 377 ) ) ( <= ( + T6 460 )( + T2 313 ) ) )
(or ( <= ( + T2 389 )  ( + T6 460 ) ) ( <= ( + T6 533 )( + T2 376 ) ) )
(or ( <= ( + T3 92 ) T4 ) ( <= ( + T4 31 ) T3 ) )
(or ( <= ( + T3 134 )  ( + T4 31 ) ) ( <= ( + T4 50 )( + T3 92 ) ) )
(or ( <= ( + T3 227 )  ( + T4 50 ) ) ( <= ( + T4 102 )( + T3 134 ) ) )
(or ( <= ( + T3 282 )  ( + T4 102 ) ) ( <= ( + T4 187 )( + T3 227 ) ) )
(or ( <= ( + T3 318 )  ( + T4 187 ) ) ( <= ( + T4 260 )( + T3 282 ) ) )
(or ( <= ( + T3 337 )  ( + T4 260 ) ) ( <= ( + T4 358 )( + T3 318 ) ) )
(or ( <= ( + T3 377 )  ( + T4 358 ) ) ( <= ( + T4 408 )( + T3 337 ) ) )
(or ( <= ( + T3 405 )  ( + T4 408 ) ) ( <= ( + T4 423 )( + T3 377 ) ) )
(or ( <= ( + T3 92 ) T5 ) ( <= ( + T5 66 ) T3 ) )
(or ( <= ( + T3 134 )  ( + T5 66 ) ) ( <= ( + T5 72 )( + T3 92 ) ) )
(or ( <= ( + T3 227 )  ( + T5 72 ) ) ( <= ( + T5 140 )( + T3 134 ) ) )
(or ( <= ( + T3 282 )  ( + T5 140 ) ) ( <= ( + T5 161 )( + T3 227 ) ) )
(or ( <= ( + T3 318 )  ( + T5 161 ) ) ( <= ( + T5 250 )( + T3 282 ) ) )
(or ( <= ( + T3 337 )  ( + T5 250 ) ) ( <= ( + T5 329 )( + T3 318 ) ) )
(or ( <= ( + T3 377 )  ( + T5 329 ) ) ( <= ( + T5 388 )( + T3 337 ) ) )
(or ( <= ( + T3 405 )  ( + T5 388 ) ) ( <= ( + T5 463 )( + T3 377 ) ) )
(or ( <= ( + T3 92 ) T6 ) ( <= ( + T6 82 ) T3 ) )
(or ( <= ( + T3 134 )  ( + T6 82 ) ) ( <= ( + T6 178 )( + T3 92 ) ) )
(or ( <= ( + T3 227 )  ( + T6 178 ) ) ( <= ( + T6 220 )( + T3 134 ) ) )
(or ( <= ( + T3 282 )  ( + T6 220 ) ) ( <= ( + T6 291 )( + T3 227 ) ) )
(or ( <= ( + T3 318 )  ( + T6 291 ) ) ( <= ( + T6 321 )( + T3 282 ) ) )
(or ( <= ( + T3 337 )  ( + T6 321 ) ) ( <= ( + T6 377 )( + T3 318 ) ) )
(or ( <= ( + T3 377 )  ( + T6 377 ) ) ( <= ( + T6 460 )( + T3 337 ) ) )
(or ( <= ( + T3 405 )  ( + T6 460 ) ) ( <= ( + T6 533 )( + T3 377 ) ) )
(or ( <= ( + T4 31 ) T5 ) ( <= ( + T5 66 ) T4 ) )
(or ( <= ( + T4 50 )  ( + T5 66 ) ) ( <= ( + T5 72 )( + T4 31 ) ) )
(or ( <= ( + T4 102 )  ( + T5 72 ) ) ( <= ( + T5 140 )( + T4 50 ) ) )
(or ( <= ( + T4 187 )  ( + T5 140 ) ) ( <= ( + T5 161 )( + T4 102 ) ) )
(or ( <= ( + T4 260 )  ( + T5 161 ) ) ( <= ( + T5 250 )( + T4 187 ) ) )
(or ( <= ( + T4 358 )  ( + T5 250 ) ) ( <= ( + T5 329 )( + T4 260 ) ) )
(or ( <= ( + T4 408 )  ( + T5 329 ) ) ( <= ( + T5 388 )( + T4 358 ) ) )
(or ( <= ( + T4 423 )  ( + T5 388 ) ) ( <= ( + T5 463 )( + T4 408 ) ) )
(or ( <= ( + T4 31 ) T6 ) ( <= ( + T6 82 ) T4 ) )
(or ( <= ( + T4 50 )  ( + T6 82 ) ) ( <= ( + T6 178 )( + T4 31 ) ) )
(or ( <= ( + T4 102 )  ( + T6 178 ) ) ( <= ( + T6 220 )( + T4 50 ) ) )
(or ( <= ( + T4 187 )  ( + T6 220 ) ) ( <= ( + T6 291 )( + T4 102 ) ) )
(or ( <= ( + T4 260 )  ( + T6 291 ) ) ( <= ( + T6 321 )( + T4 187 ) ) )
(or ( <= ( + T4 358 )  ( + T6 321 ) ) ( <= ( + T6 377 )( + T4 260 ) ) )
(or ( <= ( + T4 408 )  ( + T6 377 ) ) ( <= ( + T6 460 )( + T4 358 ) ) )
(or ( <= ( + T4 423 )  ( + T6 460 ) ) ( <= ( + T6 533 )( + T4 408 ) ) )
(or ( <= ( + T5 66 ) T6 ) ( <= ( + T6 82 ) T5 ) )
(or ( <= ( + T5 72 )  ( + T6 82 ) ) ( <= ( + T6 178 )( + T5 66 ) ) )
(or ( <= ( + T5 140 )  ( + T6 178 ) ) ( <= ( + T6 220 )( + T5 72 ) ) )
(or ( <= ( + T5 161 )  ( + T6 220 ) ) ( <= ( + T6 291 )( + T5 140 ) ) )
(or ( <= ( + T5 250 )  ( + T6 291 ) ) ( <= ( + T6 321 )( + T5 161 ) ) )
(or ( <= ( + T5 329 )  ( + T6 321 ) ) ( <= ( + T6 377 )( + T5 250 ) ) )
(or ( <= ( + T5 388 )  ( + T6 377 ) ) ( <= ( + T6 460 )( + T5 329 ) ) )
(or ( <= ( + T5 463 )  ( + T6 460 ) ) ( <= ( + T6 533 )( + T5 388 ) ) )
( <= ( + T1 306 ) Z)
( <= ( + T2 389 ) Z)
( <= ( + T3 405 ) Z)
( <= ( + T4 423 ) Z)
( <= ( + T5 463 ) Z)
( <= ( + T6 533 ) Z)
( >= T1 0 )
( >= T2 0 )
( >= T3 0 )
( >= T4 0 )
( >= T5 0 )
( >= T6 0 )
) )
)(=> $phi $goal))))